c PicoSAT SAT Solver Version 936
c Copyright (c) 2006 - 2010 Armin Biere JKU Linz
c gcc -Wall -Wextra -DNDEBUG -O3 -fomit-frame-pointer -finline-limit=1000000
c
c using 2 as default phase
c
c parsing /home/necavit/workspace_li/sat-solver/sample_problems/vars-300-9.cnf
c parsed header 'p cnf 300 1275'
c initialized 300 variables
c found 1275 non trivial clauses
c
c random number generator seed 0
c 
c  seconds     variables   original    learned     agility
c         level        used      conflicts    limit          MB
c 
c s   0.0   0.0   300   0.0  1275     0     0     0   0.0   0.1 
c 
c initial reduction limit 637 clauses
c 
c +   0.0  28.9   300  80.7  1275   100   100   700  12.5   0.1 
c R   0.0  28.9   300  80.7  1275   101   101   700  12.7   0.1 
c +   0.0  22.9   300  94.3  1275   250   249   770  20.8   0.2 
c N   0.0  20.9   300  98.3  1275   402   401   770  26.2   0.2 
c +   0.0  20.1   300  99.0  1275   475   474   847  26.9   0.2 
c +   0.0  18.9   300  99.7  1275   812   811   931  27.6   0.2 
c N   0.0  17.6   300  99.7  1275  1202   734   931  30.2   0.2 
c +   0.0  17.4   300 100.0  1275  1317   849  1024  28.9   0.2 
c +   0.0  16.7   300 100.0  1275  2074   571  1126  30.2   0.2 
c N   0.0  16.2   300 100.0  1275  3204  1132  1126  29.0   0.3 
c +   0.0  16.2   300 100.0  1275  3209  1137  1238  29.2   0.3 
c +   0.1  15.9   300 100.0  1275  4911   962  1361  26.9   0.3 
c +   0.1  15.8   300 100.0  1275  7464   762  1497  28.5   0.2 
c N   0.1  15.7   300 100.0  1275  8018  1316  1497  27.6   0.3 
c +   0.1  15.1   300 100.0  1275 11293   817  1646  29.1   0.2 
c +   0.2  15.0   300 100.0  1275 17036  1580  1810  30.1   0.4 
c N   0.3  15.0   300 100.0  1275 19235  1042  1810  29.4   0.3 
c +   0.3  14.8   300 100.0  1275 25650  1078  1991  30.8   0.3 
c +   0.5  14.3   300 100.0  1275 38571  1970  2190  29.5   0.4 
c N   0.6  14.1   300 100.0  1275 44888  1682  2190  30.6   0.4 
c 
c  seconds     variables   original    learned     agility
c         level        used      conflicts    limit          MB
c 
c +   0.8  14.0   300 100.0  1275 57952  1528  2409  28.8   0.4 
c +   1.2  13.6   300 100.0  1275 87023  1506  2649  27.7   0.4 
c N   1.4  13.5   300 100.0  1275 102e3  2400  2649  30.5   0.5 
c +   1.8  13.3   300 100.0  1275 130e3  2505  2913  29.2   0.5 
c +   2.8  12.9   300 100.0  1275 196e3  2059  3204  29.1   0.4 
c N   3.3  12.9   300 100.0  1275 230e3  3020  3204  29.1   0.5 
c 1   3.7  12.8   300 100.0  1275 257e3  2512  3204  28.9   0.5 
c 
c  seconds     variables   original    learned     agility
c         level        used      conflicts    limit          MB
c 
s SATISFIABLE
v -1 2 3 -4 -5 6 -7 -8 -9 10 -11 12 -13 14 -15 -16 -17 -18 19 20 -21 22 -23 -24
v 25 -26 27 -28 -29 30 -31 32 -33 34 -35 -36 37 -38 -39 -40 41 -42 43 -44 45
v -46 47 -48 49 50 51 -52 -53 -54 -55 -56 -57 -58 -59 60 -61 62 -63 64 -65 66
v -67 68 -69 70 -71 -72 73 74 75 -76 77 78 -79 -80 81 -82 83 84 85 86 87 -88
v -89 -90 91 92 93 -94 -95 -96 97 -98 99 -100 101 -102 103 -104 105 -106 107
v 108 109 -110 111 112 -113 -114 115 116 -117 -118 119 120 -121 -122 123 -124
v 125 -126 127 -128 129 -130 131 -132 -133 134 135 136 -137 -138 -139 140 141
v 142 -143 144 145 146 -147 148 149 150 -151 152 -153 154 155 156 157 158 159
v -160 -161 -162 163 164 165 -166 167 168 -169 170 171 172 173 174 175 -176 177
v 178 -179 -180 -181 182 183 -184 185 -186 -187 -188 -189 190 -191 -192 -193
v -194 195 -196 197 -198 199 200 201 202 -203 -204 205 -206 207 208 209 -210
v 211 -212 213 214 215 -216 217 218 219 220 221 -222 -223 224 225 -226 -227 228
v 229 230 -231 232 -233 234 -235 -236 237 238 239 -240 241 -242 243 244 -245
v -246 -247 248 249 -250 -251 252 -253 -254 -255 -256 257 -258 -259 -260 -261
v 262 263 -264 -265 266 267 268 269 -270 -271 -272 273 -274 275 276 277 -278
v 279 280 281 282 283 284 -285 -286 287 288 289 -290 -291 292 293 -294 295 -296
v 297 -298 299 -300 0
c
c 0 iterations
c 2 restarts
c 257610 conflicts
c 0 adc conflicts
c 302725 decisions
c 0 fixed variables
c 3816540 learned literals
c 26.0% deleted literals
c 16688171 propagations
c 100.0% variables used
c 3.7 seconds in library
c 4.5 megaprops/second
c 1 simplifications
c 201 reductions
c 35.6 MB recycled
c 0.6 MB maximally allocated
c 3.7 seconds total run time
Command exited with non-zero status 10
3.73
